
Gurobi 9.0.1 (linux64) logging started Thu Apr 30 05:57:54 2020

Gurobi Optimizer version 9.0.1 build v9.0.1rc0 (linux64)
Optimize a model with 980 rows, 990 columns and 7152 nonzeros
Model fingerprint: 0xb7881dae
Variable types: 0 continuous, 990 integer (980 binary)
Coefficient statistics:
  Matrix range     [1e+00, 5e+00]
  Objective range  [3e+00, 1e+02]
  Bounds range     [1e+00, 1e+00]
  RHS range        [1e+00, 1e+00]

User MIP start produced solution with objective 501 (0.00s)
Loaded user MIP start with objective 501

Presolve removed 442 rows and 468 columns
Presolve time: 0.06s
Presolved: 538 rows, 522 columns, 4086 nonzeros
Variable types: 0 continuous, 522 integer (522 binary)

Root relaxation: objective 4.199969e+02, 390 iterations, 0.02 seconds

    Nodes    |    Current Node    |     Objective Bounds      |     Work
 Expl Unexpl |  Obj  Depth IntInf | Incumbent    BestBd   Gap | It/Node Time

     0     0  419.99690    0  174  501.00000  419.99690  16.2%     -    0s
     0     0  435.11529    0  180  501.00000  435.11529  13.2%     -    0s
     0     0  446.50645    0  189  501.00000  446.50645  10.9%     -    0s
     0     0  447.97458    0  186  501.00000  447.97458  10.6%     -    0s
     0     0  447.98282    0  189  501.00000  447.98282  10.6%     -    0s
     0     0  455.15249    0  187  501.00000  455.15249  9.15%     -    0s
     0     0  456.31356    0  190  501.00000  456.31356  8.92%     -    0s
     0     0  456.31437    0  188  501.00000  456.31437  8.92%     -    0s
     0     0  462.58877    0  193  501.00000  462.58877  7.67%     -    0s
     0     0  463.18036    0  192  501.00000  463.18036  7.55%     -    0s
     0     0  463.21495    0  191  501.00000  463.21495  7.54%     -    0s
     0     0  464.15420    0  190  501.00000  464.15420  7.35%     -    0s
     0     0  464.22821    0  192  501.00000  464.22821  7.34%     -    0s
     0     0  464.23009    0  190  501.00000  464.23009  7.34%     -    0s
     0     0  466.19987    0  191  501.00000  466.19987  6.95%     -    0s
     0     0  466.38669    0  196  501.00000  466.38669  6.91%     -    0s
     0     0  466.44049    0  196  501.00000  466.44049  6.90%     -    0s
     0     0  466.45899    0  197  501.00000  466.45899  6.89%     -    0s
     0     0  468.38961    0  182  501.00000  468.38961  6.51%     -    0s
     0     0  468.40458    0  182  501.00000  468.40458  6.51%     -    0s
     0     0  469.50698    0  189  501.00000  469.50698  6.29%     -    0s
     0     0  469.50698    0  172  501.00000  469.50698  6.29%     -    0s
     0     0  470.94175    0  181  501.00000  470.94175  6.00%     -    1s
     0     0  471.79965    0  180  501.00000  471.79965  5.83%     -    1s
     0     0  471.82122    0  180  501.00000  471.82122  5.82%     -    1s
     0     0  473.04127    0  176  501.00000  473.04127  5.58%     -    1s
     0     0  473.36090    0  176  501.00000  473.36090  5.52%     -    1s
     0     0  473.37079    0  175  501.00000  473.37079  5.51%     -    1s
     0     0  478.88338    0  177  501.00000  478.88338  4.41%     -    1s
     0     0  479.83196    0  181  501.00000  479.83196  4.23%     -    1s
     0     0  480.05894    0  184  501.00000  480.05894  4.18%     -    1s
     0     0  480.09067    0  181  501.00000  480.09067  4.17%     -    1s
     0     0  480.09326    0  183  501.00000  480.09326  4.17%     -    1s
     0     0  481.59150    0  187  501.00000  481.59150  3.87%     -    1s
     0     0  481.80062    0  190  501.00000  481.80062  3.83%     -    1s
     0     0  481.82764    0  186  501.00000  481.82764  3.83%     -    1s
     0     0  482.59805    0  189  501.00000  482.59805  3.67%     -    1s
     0     0  482.63569    0  193  501.00000  482.63569  3.67%     -    1s
     0     0  482.65006    0  190  501.00000  482.65006  3.66%     -    1s
     0     0  483.84482    0  187  501.00000  483.84482  3.42%     -    1s
     0     0  483.87381    0  187  501.00000  483.87381  3.42%     -    1s
     0     0  483.94065    0  189  501.00000  483.94065  3.41%     -    1s
     0     0  483.94065    0  189  501.00000  483.94065  3.41%     -    1s
     0     0  484.10093    0  136  501.00000  484.10093  3.37%     -    1s
     0     0  487.03198    0  131  501.00000  487.03198  2.79%     -    1s
     0     0  488.16667    0  131  501.00000  488.16667  2.56%     -    1s
     0     0  491.66268    0  139  501.00000  491.66268  1.86%     -    1s
     0     0  493.99166    0  144  501.00000  493.99166  1.40%     -    1s
     0     0  494.29619    0  142  501.00000  494.29619  1.34%     -    1s
     0     0  494.33202    0  142  501.00000  494.33202  1.33%     -    1s
     0     0  497.16582    0  134  501.00000  497.16582  0.77%     -    1s

Cutting planes:
  Clique: 12
  MIR: 10
  Zero half: 15
  RLT: 25

Explored 1 nodes (3700 simplex iterations) in 1.87 seconds
Thread count was 1 (of 40 available processors)

Solution count 1: 501 

Optimal solution found (tolerance 1.00e-04)
Best objective 5.010000000000e+02, best bound 5.010000000000e+02, gap 0.0000%

User-callback calls 755, time in user-callback 0.00 sec
